nMeses = 12;
nAceiteVegetal = 2;
nAceiteNoVegetal = 3;
VALOR = 160;
dureza = [8.5, 6.0, 2.2, 4.0, 5.2];
precios = [| 112, 122, 132, 112, 117
           | 132, 132, 112, 92, 117
           | 112, 142, 132, 102, 97
           | 122, 112, 122, 122, 127
           | 102, 122, 152, 112, 107
           | 92, 102, 142, 82, 137
           | 102, 112, 132, 102, 107
           | 122, 122, 112, 92, 107
           | 102, 132, 132, 92, 87
           | 112, 102, 122, 112, 117
           | 92, 112, 142, 102, 97
           | 82, 92, 132, 72, 127 |];
MAXV = 220;
MAXN = 270;
MCAP = 1100;
CA = 55;
MinD = 3.2;
MaxD = 6.2; 
MinB = 110000;
inicial = [550, 560, 570, 580, 580];
PV = 11;
MesesPerdida=3;